
# Initialization
units		real
atom_style	full
boundary	p p p
pair_style	lj/cut/coul/cut	100.0

bond_style      harmonic
angle_style     harmonic
dihedral_style	fourier
read_data	angioII+2.lam

pair_coeff	1	2	0.0359165699921	2.99965598397
pair_coeff	1	3	0.0969969071672	3.39966950842
pair_coeff	1	4	0.0367450676962	3.02460114808
pair_coeff	1	5	0.086	3.39966950842
pair_coeff	1	6	0.134515426625	3.23307144813
pair_coeff	1	7	0.134387499419	3.17979570479
pair_coeff	1	8	0.120913192002	3.3248340161
pair_coeff	1	9	0.0367450676962	2.93551127627
pair_coeff	1	10	0.120913192002	3.19984092594
pair_coeff	1	11	0.00293257565972	1.74983475421
pair_coeff	1	12	0.0367450676962	2.23437398509
pair_coeff	1	13	0.086	3.39966950842
pair_coeff	1	14	0.120913192002	3.3248340161
pair_coeff	1	15	0.120913192002	3.3248340161
pair_coeff	2	3	0.0405092582011	2.99965598397
pair_coeff	2	4	0.0153460092532	2.62458762364
pair_coeff	2	5	0.0359165699921	2.99965598397
pair_coeff	2	6	0.0561782876208	2.83305792368
pair_coeff	2	7	0.0561248608016	2.77978218034
pair_coeff	2	8	0.0504975246918	2.92482049165
pair_coeff	2	9	0.0153460092532	2.53549775182
pair_coeff	2	10	0.0504975246918	2.7998274015
pair_coeff	2	11	0.00122474487139	1.34982122977
pair_coeff	2	12	0.0153460092532	1.83436046065
pair_coeff	2	13	0.0359165699921	2.99965598397
pair_coeff	2	14	0.0504975246918	2.92482049165
pair_coeff	2	15	0.0504975246918	2.92482049165
pair_coeff	3	4	0.0414436967463	3.02460114808
pair_coeff	3	5	0.0969969071672	3.39966950842
pair_coeff	3	6	0.151716050568	3.23307144813
pair_coeff	3	7	0.151571765181	3.17979570479
pair_coeff	3	8	0.136374484417	3.3248340161
pair_coeff	3	9	0.0414436967463	2.93551127627
pair_coeff	3	10	0.136374484417	3.19984092594
pair_coeff	3	11	0.00330756708171	1.74983475421
pair_coeff	3	12	0.0414436967463	2.23437398509
pair_coeff	3	13	0.0969969071672	3.39966950842
pair_coeff	3	14	0.136374484417	3.3248340161
pair_coeff	3	15	0.136374484417	3.3248340161
pair_coeff	4	5	0.0367450676962	3.02460114808
pair_coeff	4	6	0.0574741681106	2.85800308779
pair_coeff	4	7	0.0574195088798	2.80472734445
pair_coeff	4	8	0.0516623654124	2.94976565576
pair_coeff	4	9	0.0157	2.56044291593
pair_coeff	4	10	0.0516623654124	2.82477256561
pair_coeff	4	11	0.00125299640861	1.37476639388
pair_coeff	4	12	0.0157	1.85930562476
pair_coeff	4	13	0.0367450676962	3.02460114808
pair_coeff	4	14	0.0516623654124	2.94976565576
pair_coeff	4	15	0.0516623654124	2.94976565576
pair_coeff	5	6	0.134515426625	3.23307144813
pair_coeff	5	7	0.134387499419	3.17979570479
pair_coeff	5	8	0.120913192002	3.3248340161
pair_coeff	5	9	0.0367450676962	2.93551127627
pair_coeff	5	10	0.120913192002	3.19984092594
pair_coeff	5	11	0.00293257565972	1.74983475421
pair_coeff	5	12	0.0367450676962	2.23437398509
pair_coeff	5	13	0.086	3.39966950842
pair_coeff	5	14	0.120913192002	3.3248340161
pair_coeff	5	15	0.120913192002	3.3248340161
pair_coeff	6	7	0.210199904852	3.01319764449
pair_coeff	6	8	0.189124297752	3.15823595581
pair_coeff	6	9	0.0574741681106	2.76891321598
pair_coeff	6	10	0.189124297752	3.03324286565
pair_coeff	6	11	0.00458693797647	1.58323669392
pair_coeff	6	12	0.0574741681106	2.0677759248
pair_coeff	6	13	0.134515426625	3.23307144813
pair_coeff	6	14	0.189124297752	3.15823595581
pair_coeff	6	15	0.189124297752	3.15823595581
pair_coeff	7	8	0.188944436277	3.10496021246
pair_coeff	7	9	0.0574195088798	2.71563747263
pair_coeff	7	10	0.188944436277	2.97996712231
pair_coeff	7	11	0.00458257569496	1.52996095058
pair_coeff	7	12	0.0574195088798	2.01450018146
pair_coeff	7	13	0.134387499419	3.17979570479
pair_coeff	7	14	0.188944436277	3.10496021246
pair_coeff	7	15	0.188944436277	3.10496021246
pair_coeff	8	9	0.0516623654124	2.86067578395
pair_coeff	8	10	0.17	3.12500543362
pair_coeff	8	11	0.00412310562562	1.67499926189
pair_coeff	8	12	0.0516623654124	2.15953849277
pair_coeff	8	13	0.120913192002	3.3248340161
pair_coeff	8	14	0.17	3.24999852378
pair_coeff	8	15	0.17	3.24999852378
pair_coeff	9	10	0.0516623654124	2.73568269379
pair_coeff	9	11	0.00125299640861	1.28567652206
pair_coeff	9	12	0.0157	1.77021575294
pair_coeff	9	13	0.0367450676962	2.93551127627
pair_coeff	9	14	0.0516623654124	2.86067578395
pair_coeff	9	15	0.0516623654124	2.86067578395
pair_coeff	10	11	0.00412310562562	1.55000617173
pair_coeff	10	12	0.0516623654124	2.03454540262
pair_coeff	10	13	0.120913192002	3.19984092594
pair_coeff	10	14	0.17	3.12500543362
pair_coeff	10	15	0.17	3.12500543362
pair_coeff	11	12	0.00125299640861	0.584539230885
pair_coeff	11	13	0.00293257565972	1.74983475421
pair_coeff	11	14	0.00412310562562	1.67499926189
pair_coeff	11	15	0.00412310562562	1.67499926189
pair_coeff	12	13	0.0367450676962	2.23437398509
pair_coeff	12	14	0.0516623654124	2.15953849277
pair_coeff	12	15	0.0516623654124	2.15953849277
pair_coeff	13	14	0.120913192002	3.3248340161
pair_coeff	13	15	0.120913192002	3.3248340161
pair_coeff	14	15	0.17	3.24999852378

dump            1 all custom 1000000 a.dump id type xs ys zs ix iy iz q
velocity 	all create 1000 123
fix	1 all nvt temp 300 300 100 tchain 3
fix 2 all qeq/dynamic 1 10 1.0e-3 100 param.qeq2

thermo_style	multi
thermo          100000
timestep	1
run		100000000

print "All done"


